.Version 9.2.2 of ABINIT

 ABINIT is a project of the Universite Catholique de Louvain,
 Corning Inc. and other collaborators, see ~abinit/doc/developers/contributors.txt .
 acknowledgments of the ABINIT effort.

.Starting date : Tue 16 Mar 2021.
- ( at 16h59 )

 === Build Information ===
  Version       : 9.2.2
  Build target  : x86_64_darwin19.6.0_gnu10.2
  Build date    : 20201112

 === Optimizations ===
  Debug level        : basic
  Optimization level : standard
  Architecture       : unknown_unknown

 === Multicore ===
  Parallel build : yes
  Parallel I/O   :
  openMP support : yes
  GPU support    :

 === Connectors / Fallbacks ===
  LINALG flavor  : netlib
  FFT flavor     : fftw3
  HDF5           : yes
  NetCDF         : yes
  NetCDF Fortran : yes
  Wannier90      : yes

 === Experimental features ===
  Exports             :
  GW double-precision :

 Default optimizations:
   -O2 -mtune=native -march=native

 Optimizations for 43_ptgroups:
   -O0

 CPP options activated during the build:

                   CC_LLVM                  CXX_LLVM                    FC_GNU

 HAVE_FC_ALLOCATABLE_DT...             HAVE_FC_ASYNC         HAVE_FC_BACKTRACE

  HAVE_FC_COMMAND_ARGUMENT      HAVE_FC_COMMAND_LINE        HAVE_FC_CONTIGUOUS

           HAVE_FC_CPUTIME              HAVE_FC_EXIT             HAVE_FC_FLUSH

             HAVE_FC_GAMMA            HAVE_FC_GETENV   HAVE_FC_IEEE_ARITHMETIC

   HAVE_FC_IEEE_EXCEPTIONS          HAVE_FC_INT_QUAD             HAVE_FC_IOMSG

     HAVE_FC_ISO_C_BINDING  HAVE_FC_ISO_FORTRAN_2008        HAVE_FC_LONG_LINES

        HAVE_FC_MOVE_ALLOC  HAVE_FC_ON_THE_FLY_SHAPE           HAVE_FC_PRIVATE

         HAVE_FC_PROTECTED           HAVE_FC_SHIFTLR         HAVE_FC_STREAM_IO

            HAVE_FC_SYSTEM                HAVE_FFTW3            HAVE_FFTW3_MPI

          HAVE_FORTRAN2003                 HAVE_HDF5             HAVE_HDF5_MPI

     HAVE_LINALG_ZDOTC_B*G     HAVE_LINALG_ZDOTU_B*G                  HAVE_MPI

                 HAVE_MPI2         HAVE_MPI2_INPLACE       HAVE_MPI_IALLGATHER

       HAVE_MPI_IALLREDUCE        HAVE_MPI_IALLTOALL       HAVE_MPI_IALLTOALLV

           HAVE_MPI_IBCAST         HAVE_MPI_IGATHERV        HAVE_MPI_INTEGER16

               HAVE_MPI_IO HAVE_MPI_TYPE_CREATE_S...               HAVE_NETCDF

       HAVE_NETCDF_FORTRAN   HAVE_NETCDF_FORTRAN_MPI           HAVE_NETCDF_MPI

         HAVE_OMP_COLLAPSE               HAVE_OPENMP         HAVE_TIMER_ABINIT

            HAVE_WANNIER90                  HAVE_XML

- input  file    -> sth1_relax.in
- output file    -> sth1_relax.abo
- root for input  files -> sth1_relaxi
- root for output files -> sth1_relaxo

--- !WARNING
src_file: m_nctk.F90
src_line: 564
message: |
...

  Asked to delete not existent file: __TMP_FILE__

--- !WARNING
src_file: m_nctk.F90
src_line: 584
message: |
    The netcdf library does not support parallel IO, see message above
    Abinit won't be able to produce files in parallel e.g. when paral_kgb==1 is used.
...

-instrng: 172 lines of input have been read from file sth1_relax.in

  read the values zionpsp=  1.0 , pspcod=   8 , lmax=   1
  read the values zionpsp=  6.0 , pspcod=   8 , lmax=   2
  read the values zionpsp=  4.0 , pspcod=   8 , lmax=   2

 inpspheads: deduce mpsang = 3, n1xccc = 2501.

 invars1m : enter jdtset= 11

 symlatt: the Bravais lattice is cP (primitive cubic)
  xcart  is defined in input file (possibly in Angstrom)
 ingeo: takes atomic coordinates from input array xcart

--- !WARNING
src_file: m_ingeo.F90
src_line: 887
message: |
    The tolerance on symmetries =   1.000E-05 is bigger than 1.0e-8.
    In order to avoid spurious effects, the atomic coordinates have been
    symmetrized before storing them in the dataset internal variable.
    So, do not be surprised by the fact that your input variables (xcart, xred, ...)
    do not correspond to the ones echoed by ABINIT, the latter being used to do the calculations.
    In order to avoid this symmetrization (e.g. for specific debugging/development), decrease tolsym to 1.0e-8 or lower.
...

 symlatt: the Bravais lattice is cP (primitive cubic)

 symlatt: the Bravais lattice is cP (primitive cubic)
 symspgr: spgroup= 215  P-4 3 m   (=Td^1)
 symspgr: optical characteristics = isotropic
 inkpts: Sum of 1 k point weights is    1.000000

[...]

 symlatt: the Bravais lattice is cP (primitive cubic)
 symspgr: spgroup= 215  P-4 3 m   (=Td^1)
 symspgr: optical characteristics = isotropic
 inkpts: Sum of 1 k point weights is    1.000000

 invars1m : enter jdtset= 25

 symlatt: the Bravais lattice is cP (primitive cubic)
  xcart  is defined in input file (possibly in Angstrom)
 ingeo: takes atomic coordinates from input array xcart

--- !WARNING
src_file: m_ingeo.F90
src_line: 887
message: |
    The tolerance on symmetries =   1.000E-05 is bigger than 1.0e-8.
    In order to avoid spurious effects, the atomic coordinates have been
    symmetrized before storing them in the dataset internal variable.
    So, do not be surprised by the fact that your input variables (xcart, xred, ...)
    do not correspond to the ones echoed by ABINIT, the latter being used to do the calculations.
    In order to avoid this symmetrization (e.g. for specific debugging/development), decrease tolsym to 1.0e-8 or lower.
...

 symlatt: the Bravais lattice is cP (primitive cubic)

 symlatt: the Bravais lattice is cP (primitive cubic)
 symspgr: spgroup= 215  P-4 3 m   (=Td^1)
 symspgr: optical characteristics = isotropic
 inkpts: Sum of 1 k point weights is    1.000000
 inkpts: Sum of 1 k point weights is    1.000000
 dtset_chkneu: initialized the occupation numbers for occopt= 3
    spin up   values:
 inkpts: Sum of 1 k point weights is    1.000000
 dtset_chkneu: initialized the occupation numbers for occopt= 3
    spin up   values:
 inkpts: Sum of 1 k point weights is    1.000000
 dtset_chkneu: initialized the occupation numbers for occopt= 3
    spin up   values:
 inkpts: Sum of 1 k point weights is    1.000000
 dtset_chkneu: initialized the occupation numbers for occopt= 3
    spin up   values:
 inkpts: Sum of 1 k point weights is    1.000000
 dtset_chkneu: initialized the occupation numbers for occopt= 3
    spin up   values:
 inkpts: Sum of 1 k point weights is    1.000000
 dtset_chkneu: initialized the occupation numbers for occopt= 3
    spin up   values:
 inkpts: Sum of 1 k point weights is    1.000000
 dtset_chkneu: initialized the occupation numbers for occopt= 3
    spin up   values:
 inkpts: Sum of 1 k point weights is    1.000000
 dtset_chkneu: initialized the occupation numbers for occopt= 3
    spin up   values:
 inkpts: Sum of 1 k point weights is    1.000000
 dtset_chkneu: initialized the occupation numbers for occopt= 3
    spin up   values:
 inkpts: Sum of 1 k point weights is    1.000000
 dtset_chkneu: initialized the occupation numbers for occopt= 3
    spin up   values:
 For input ecut=  5.000000E+00 best grid ngfft=      32      32      32
       max ecut=  5.614708E+00

 ==== FFT mesh ====
  FFT mesh divisions ........................    32   32   32
  Augmented FFT divisions ...................    33   33   32
  FFT algorithm .............................   312
  FFT cache size ............................    16
 getmpw: optimal value of mpw= 1791
 For input ecut=  1.300000E+01 best grid ngfft=      50      50      50
       max ecut=  1.370778E+01

[...]

 ==== FFT mesh ====
  FFT mesh divisions ........................   150  150  150
  Augmented FFT divisions ...................   151  151  150
  FFT algorithm .............................   312
  FFT cache size ............................    16
 getmpw: optimal value of mpw= 201485
 For input ecut=  3.700000E+01 best grid ngfft=     180     180     180
       max ecut=  4.441322E+01

 ==== FFT mesh ====
  FFT mesh divisions ........................   180  180  180
  Augmented FFT divisions ...................   181  181  180
  FFT algorithm .............................   312
  FFT cache size ............................    16
 getmpw: optimal value of mpw= 290243

 DATASET   11 : space group P-4 3 m (#215); Bravais cP (primitive cubic)

 getdim_nloc : deduce lmnmax  =  18, lnmax  =   6,
                      lmnmaxso=  18, lnmaxso=   6.
     intxc =       0    ionmov =       0      iscf =       7    lmnmax =       6
     lnmax =       6     mgfft =      32  mpssoang =       3    mqgrid =    3001
     natom =      21  nloc_mem =       1    nspden =       2   nspinor =       1
    nsppol =       2      nsym =      24    n1xccc =    2501    ntypat =       3
    occopt =       3   xclevel =       1
-    mband =         100        mffmem =           1         mkmem =           1
       mpw =        1791          nfft =       32768          nkpt =           1
  Rough estimation (10% accuracy) of disk space for files :

 The job will continue.

[...]

 DATASET   25 : space group P-4 3 m (#215); Bravais cP (primitive cubic)

 getdim_nloc : deduce lmnmax  =  18, lnmax  =   6,
                      lmnmaxso=  18, lnmaxso=   6.
     intxc =       0    ionmov =       0      iscf =       7    lmnmax =       6
     lnmax =       6     mgfft =     180  mpssoang =       3    mqgrid =    8215
     natom =      21  nloc_mem =       1    nspden =       2   nspinor =       1
    nsppol =       2      nsym =      24    n1xccc =    2501    ntypat =       3
    occopt =       3   xclevel =       1
-    mband =         100        mffmem =           1         mkmem =           1
       mpw =      290243          nfft =     5832000          nkpt =           1
  Rough estimation (10% accuracy) of disk space for files :

 The job will continue.

--- !COMMENT
src_file: m_outvars.F90
src_line: 212
message: |
    output of OUT.nc has been disabled. Too many datasets
...

------------- Echo of variables that govern the present computation ------------
-
- outvars: echo of selected default values
-   iomode0 =  0 , fftalg0 =312 , wfoptalg0 =  0
-
- outvars: echo of global parameters not present in the input file
-  max_nthreads =    8
-
 -outvars: echo values of preprocessed input variables --------

[...]

            acell11    1.5000000000E+01  1.5000000000E+01  1.5000000000E+01 Bohr
            acell12    1.5000000000E+01  1.5000000000E+01  1.5000000000E+01 Bohr
            acell13    1.5000000000E+01  1.5000000000E+01  1.5000000000E+01 Bohr
            acell14    1.5000000000E+01  1.5000000000E+01  1.5000000000E+01 Bohr
            acell15    1.5000000000E+01  1.5000000000E+01  1.5000000000E+01 Bohr
            acell21    3.0000000000E+01  3.0000000000E+01  3.0000000000E+01 Bohr
            acell22    3.0000000000E+01  3.0000000000E+01  3.0000000000E+01 Bohr
            acell23    3.0000000000E+01  3.0000000000E+01  3.0000000000E+01 Bohr
            acell24    3.0000000000E+01  3.0000000000E+01  3.0000000000E+01 Bohr
            acell25    3.0000000000E+01  3.0000000000E+01  3.0000000000E+01 Bohr
              amu      1.00794000E+00  1.59994000E+01  2.80855000E+01
           charge      1.00000000E+00
           diemac      1.20000000E+01
             ecut11    5.00000000E+00 Hartree
             ecut12    1.30000000E+01 Hartree
[...]
                       2.9565424942E+00  6.2560016897E+00  2.9565424942E+00
                       2.9565424942E+00  2.9565424942E+00  6.2560016897E+00
             xred11    0.0000000000E+00  0.0000000000E+00  0.0000000000E+00
                       2.3690075811E-01 -2.3690075811E-01 -2.3690075811E-01
                      -2.3690075811E-01  2.3690075811E-01 -2.3690075811E-01
                      -2.3690075811E-01 -2.3690075811E-01  2.3690075811E-01
                       2.3690075811E-01  2.3690075811E-01  2.3690075811E-01
                       1.1704327419E-01 -1.1704327419E-01 -1.1704327419E-01
                      -1.1704327419E-01  1.1704327419E-01 -1.1704327419E-01
                      -1.1704327419E-01 -1.1704327419E-01  1.1704327419E-01
                       1.1704327419E-01  1.1704327419E-01  1.1704327419E-01
                       1.9710283295E-01 -1.9710283295E-01 -4.1706677931E-01
                       1.9710283295E-01 -4.1706677931E-01 -1.9710283295E-01
                       4.1706677931E-01 -1.9710283295E-01 -1.9710283295E-01
                      -1.9710283295E-01  1.9710283295E-01 -4.1706677931E-01
                      -1.9710283295E-01  4.1706677931E-01 -1.9710283295E-01
                      -4.1706677931E-01  1.9710283295E-01 -1.9710283295E-01
                      -1.9710283295E-01 -1.9710283295E-01  4.1706677931E-01
                      -1.9710283295E-01 -4.1706677931E-01  1.9710283295E-01
                      -4.1706677931E-01 -1.9710283295E-01  1.9710283295E-01
                       4.1706677931E-01  1.9710283295E-01  1.9710283295E-01
                       1.9710283295E-01  4.1706677931E-01  1.9710283295E-01
                       1.9710283295E-01  1.9710283295E-01  4.1706677931E-01
             xred12    0.0000000000E+00  0.0000000000E+00  0.0000000000E+00
                       2.3690075811E-01 -2.3690075811E-01 -2.3690075811E-01
                      -2.3690075811E-01  2.3690075811E-01 -2.3690075811E-01
                      -2.3690075811E-01 -2.3690075811E-01  2.3690075811E-01
                       2.3690075811E-01  2.3690075811E-01  2.3690075811E-01
                       1.1704327419E-01 -1.1704327419E-01 -1.1704327419E-01
                      -1.1704327419E-01  1.1704327419E-01 -1.1704327419E-01
                      -1.1704327419E-01 -1.1704327419E-01  1.1704327419E-01
                       1.1704327419E-01  1.1704327419E-01  1.1704327419E-01
                       1.9710283295E-01 -1.9710283295E-01 -4.1706677931E-01
                       1.9710283295E-01 -4.1706677931E-01 -1.9710283295E-01
                       4.1706677931E-01 -1.9710283295E-01 -1.9710283295E-01
                      -1.9710283295E-01  1.9710283295E-01 -4.1706677931E-01
                      -1.9710283295E-01  4.1706677931E-01 -1.9710283295E-01
                      -4.1706677931E-01  1.9710283295E-01 -1.9710283295E-01
                      -1.9710283295E-01 -1.9710283295E-01  4.1706677931E-01
                      -1.9710283295E-01 -4.1706677931E-01  1.9710283295E-01
                      -4.1706677931E-01 -1.9710283295E-01  1.9710283295E-01
                       4.1706677931E-01  1.9710283295E-01  1.9710283295E-01
                       1.9710283295E-01  4.1706677931E-01  1.9710283295E-01
                       1.9710283295E-01  1.9710283295E-01  4.1706677931E-01
             xred13    0.0000000000E+00  0.0000000000E+00  0.0000000000E+00
                       2.3690075811E-01 -2.3690075811E-01 -2.3690075811E-01
                      -2.3690075811E-01  2.3690075811E-01 -2.3690075811E-01
                      -2.3690075811E-01 -2.3690075811E-01  2.3690075811E-01
                       2.3690075811E-01  2.3690075811E-01  2.3690075811E-01
                       1.1704327419E-01 -1.1704327419E-01 -1.1704327419E-01
                      -1.1704327419E-01  1.1704327419E-01 -1.1704327419E-01
                      -1.1704327419E-01 -1.1704327419E-01  1.1704327419E-01
                       1.1704327419E-01  1.1704327419E-01  1.1704327419E-01
                       1.9710283295E-01 -1.9710283295E-01 -4.1706677931E-01
                       1.9710283295E-01 -4.1706677931E-01 -1.9710283295E-01
                       4.1706677931E-01 -1.9710283295E-01 -1.9710283295E-01
                      -1.9710283295E-01  1.9710283295E-01 -4.1706677931E-01
                      -1.9710283295E-01  4.1706677931E-01 -1.9710283295E-01
                      -4.1706677931E-01  1.9710283295E-01 -1.9710283295E-01
                      -1.9710283295E-01 -1.9710283295E-01  4.1706677931E-01
                      -1.9710283295E-01 -4.1706677931E-01  1.9710283295E-01
                      -4.1706677931E-01 -1.9710283295E-01  1.9710283295E-01
                       4.1706677931E-01  1.9710283295E-01  1.9710283295E-01
                       1.9710283295E-01  4.1706677931E-01  1.9710283295E-01
                       1.9710283295E-01  1.9710283295E-01  4.1706677931E-01
             xred14    0.0000000000E+00  0.0000000000E+00  0.0000000000E+00
                       2.3690075811E-01 -2.3690075811E-01 -2.3690075811E-01
                      -2.3690075811E-01  2.3690075811E-01 -2.3690075811E-01
                      -2.3690075811E-01 -2.3690075811E-01  2.3690075811E-01
                       2.3690075811E-01  2.3690075811E-01  2.3690075811E-01
                       1.1704327419E-01 -1.1704327419E-01 -1.1704327419E-01
                      -1.1704327419E-01  1.1704327419E-01 -1.1704327419E-01
                      -1.1704327419E-01 -1.1704327419E-01  1.1704327419E-01
                       1.1704327419E-01  1.1704327419E-01  1.1704327419E-01
                       1.9710283295E-01 -1.9710283295E-01 -4.1706677931E-01
                       1.9710283295E-01 -4.1706677931E-01 -1.9710283295E-01
                       4.1706677931E-01 -1.9710283295E-01 -1.9710283295E-01
                      -1.9710283295E-01  1.9710283295E-01 -4.1706677931E-01
                      -1.9710283295E-01  4.1706677931E-01 -1.9710283295E-01
                      -4.1706677931E-01  1.9710283295E-01 -1.9710283295E-01
                      -1.9710283295E-01 -1.9710283295E-01  4.1706677931E-01
                      -1.9710283295E-01 -4.1706677931E-01  1.9710283295E-01
                      -4.1706677931E-01 -1.9710283295E-01  1.9710283295E-01
                       4.1706677931E-01  1.9710283295E-01  1.9710283295E-01
                       1.9710283295E-01  4.1706677931E-01  1.9710283295E-01
                       1.9710283295E-01  1.9710283295E-01  4.1706677931E-01
             xred15    0.0000000000E+00  0.0000000000E+00  0.0000000000E+00
                       2.3690075811E-01 -2.3690075811E-01 -2.3690075811E-01
                      -2.3690075811E-01  2.3690075811E-01 -2.3690075811E-01
                      -2.3690075811E-01 -2.3690075811E-01  2.3690075811E-01
                       2.3690075811E-01  2.3690075811E-01  2.3690075811E-01
                       1.1704327419E-01 -1.1704327419E-01 -1.1704327419E-01
                      -1.1704327419E-01  1.1704327419E-01 -1.1704327419E-01
                      -1.1704327419E-01 -1.1704327419E-01  1.1704327419E-01
                       1.1704327419E-01  1.1704327419E-01  1.1704327419E-01
                       1.9710283295E-01 -1.9710283295E-01 -4.1706677931E-01
                       1.9710283295E-01 -4.1706677931E-01 -1.9710283295E-01
                       4.1706677931E-01 -1.9710283295E-01 -1.9710283295E-01
                      -1.9710283295E-01  1.9710283295E-01 -4.1706677931E-01
                      -1.9710283295E-01  4.1706677931E-01 -1.9710283295E-01
                      -4.1706677931E-01  1.9710283295E-01 -1.9710283295E-01
                      -1.9710283295E-01 -1.9710283295E-01  4.1706677931E-01
                      -1.9710283295E-01 -4.1706677931E-01  1.9710283295E-01
                      -4.1706677931E-01 -1.9710283295E-01  1.9710283295E-01
                       4.1706677931E-01  1.9710283295E-01  1.9710283295E-01
                       1.9710283295E-01  4.1706677931E-01  1.9710283295E-01
                       1.9710283295E-01  1.9710283295E-01  4.1706677931E-01
             xred21    0.0000000000E+00  0.0000000000E+00  0.0000000000E+00
                       1.1845037906E-01 -1.1845037906E-01 -1.1845037906E-01
                      -1.1845037906E-01  1.1845037906E-01 -1.1845037906E-01
                      -1.1845037906E-01 -1.1845037906E-01  1.1845037906E-01
                       1.1845037906E-01  1.1845037906E-01  1.1845037906E-01
                       5.8521637096E-02 -5.8521637096E-02 -5.8521637096E-02
                      -5.8521637096E-02  5.8521637096E-02 -5.8521637096E-02
                      -5.8521637096E-02 -5.8521637096E-02  5.8521637096E-02
                       5.8521637096E-02  5.8521637096E-02  5.8521637096E-02
                       9.8551416473E-02 -9.8551416473E-02 -2.0853338966E-01
                       9.8551416473E-02 -2.0853338966E-01 -9.8551416473E-02
                       2.0853338966E-01 -9.8551416473E-02 -9.8551416473E-02
                      -9.8551416473E-02  9.8551416473E-02 -2.0853338966E-01
                      -9.8551416473E-02  2.0853338966E-01 -9.8551416473E-02
                      -2.0853338966E-01  9.8551416473E-02 -9.8551416473E-02
                      -9.8551416473E-02 -9.8551416473E-02  2.0853338966E-01
                      -9.8551416473E-02 -2.0853338966E-01  9.8551416473E-02
                      -2.0853338966E-01 -9.8551416473E-02  9.8551416473E-02
                       2.0853338966E-01  9.8551416473E-02  9.8551416473E-02
                       9.8551416473E-02  2.0853338966E-01  9.8551416473E-02
                       9.8551416473E-02  9.8551416473E-02  2.0853338966E-01
             xred22    0.0000000000E+00  0.0000000000E+00  0.0000000000E+00
                       1.1845037906E-01 -1.1845037906E-01 -1.1845037906E-01
                      -1.1845037906E-01  1.1845037906E-01 -1.1845037906E-01
                      -1.1845037906E-01 -1.1845037906E-01  1.1845037906E-01
                       1.1845037906E-01  1.1845037906E-01  1.1845037906E-01
                       5.8521637096E-02 -5.8521637096E-02 -5.8521637096E-02
                      -5.8521637096E-02  5.8521637096E-02 -5.8521637096E-02
                      -5.8521637096E-02 -5.8521637096E-02  5.8521637096E-02
                       5.8521637096E-02  5.8521637096E-02  5.8521637096E-02
                       9.8551416473E-02 -9.8551416473E-02 -2.0853338966E-01
                       9.8551416473E-02 -2.0853338966E-01 -9.8551416473E-02
                       2.0853338966E-01 -9.8551416473E-02 -9.8551416473E-02
                      -9.8551416473E-02  9.8551416473E-02 -2.0853338966E-01
                      -9.8551416473E-02  2.0853338966E-01 -9.8551416473E-02
                      -2.0853338966E-01  9.8551416473E-02 -9.8551416473E-02
                      -9.8551416473E-02 -9.8551416473E-02  2.0853338966E-01
                      -9.8551416473E-02 -2.0853338966E-01  9.8551416473E-02
                      -2.0853338966E-01 -9.8551416473E-02  9.8551416473E-02
                       2.0853338966E-01  9.8551416473E-02  9.8551416473E-02
                       9.8551416473E-02  2.0853338966E-01  9.8551416473E-02
                       9.8551416473E-02  9.8551416473E-02  2.0853338966E-01
             xred23    0.0000000000E+00  0.0000000000E+00  0.0000000000E+00
                       1.1845037906E-01 -1.1845037906E-01 -1.1845037906E-01
                      -1.1845037906E-01  1.1845037906E-01 -1.1845037906E-01
                      -1.1845037906E-01 -1.1845037906E-01  1.1845037906E-01
                       1.1845037906E-01  1.1845037906E-01  1.1845037906E-01
                       5.8521637096E-02 -5.8521637096E-02 -5.8521637096E-02
                      -5.8521637096E-02  5.8521637096E-02 -5.8521637096E-02
                      -5.8521637096E-02 -5.8521637096E-02  5.8521637096E-02
                       5.8521637096E-02  5.8521637096E-02  5.8521637096E-02
                       9.8551416473E-02 -9.8551416473E-02 -2.0853338966E-01
                       9.8551416473E-02 -2.0853338966E-01 -9.8551416473E-02
                       2.0853338966E-01 -9.8551416473E-02 -9.8551416473E-02
                      -9.8551416473E-02  9.8551416473E-02 -2.0853338966E-01
                      -9.8551416473E-02  2.0853338966E-01 -9.8551416473E-02
                      -2.0853338966E-01  9.8551416473E-02 -9.8551416473E-02
                      -9.8551416473E-02 -9.8551416473E-02  2.0853338966E-01
                      -9.8551416473E-02 -2.0853338966E-01  9.8551416473E-02
                      -2.0853338966E-01 -9.8551416473E-02  9.8551416473E-02
                       2.0853338966E-01  9.8551416473E-02  9.8551416473E-02
                       9.8551416473E-02  2.0853338966E-01  9.8551416473E-02
                       9.8551416473E-02  9.8551416473E-02  2.0853338966E-01
             xred24    0.0000000000E+00  0.0000000000E+00  0.0000000000E+00
                       1.1845037906E-01 -1.1845037906E-01 -1.1845037906E-01
                      -1.1845037906E-01  1.1845037906E-01 -1.1845037906E-01
                      -1.1845037906E-01 -1.1845037906E-01  1.1845037906E-01
                       1.1845037906E-01  1.1845037906E-01  1.1845037906E-01
                       5.8521637096E-02 -5.8521637096E-02 -5.8521637096E-02
                      -5.8521637096E-02  5.8521637096E-02 -5.8521637096E-02
                      -5.8521637096E-02 -5.8521637096E-02  5.8521637096E-02
                       5.8521637096E-02  5.8521637096E-02  5.8521637096E-02
                       9.8551416473E-02 -9.8551416473E-02 -2.0853338966E-01
                       9.8551416473E-02 -2.0853338966E-01 -9.8551416473E-02
                       2.0853338966E-01 -9.8551416473E-02 -9.8551416473E-02
                      -9.8551416473E-02  9.8551416473E-02 -2.0853338966E-01
                      -9.8551416473E-02  2.0853338966E-01 -9.8551416473E-02
                      -2.0853338966E-01  9.8551416473E-02 -9.8551416473E-02
                      -9.8551416473E-02 -9.8551416473E-02  2.0853338966E-01
                      -9.8551416473E-02 -2.0853338966E-01  9.8551416473E-02
                      -2.0853338966E-01 -9.8551416473E-02  9.8551416473E-02
                       2.0853338966E-01  9.8551416473E-02  9.8551416473E-02
                       9.8551416473E-02  2.0853338966E-01  9.8551416473E-02
                       9.8551416473E-02  9.8551416473E-02  2.0853338966E-01
             xred25    0.0000000000E+00  0.0000000000E+00  0.0000000000E+00
                       1.1845037906E-01 -1.1845037906E-01 -1.1845037906E-01
                      -1.1845037906E-01  1.1845037906E-01 -1.1845037906E-01
                      -1.1845037906E-01 -1.1845037906E-01  1.1845037906E-01
                       1.1845037906E-01  1.1845037906E-01  1.1845037906E-01
                       5.8521637096E-02 -5.8521637096E-02 -5.8521637096E-02
                      -5.8521637096E-02  5.8521637096E-02 -5.8521637096E-02
                      -5.8521637096E-02 -5.8521637096E-02  5.8521637096E-02
                       5.8521637096E-02  5.8521637096E-02  5.8521637096E-02
                       9.8551416473E-02 -9.8551416473E-02 -2.0853338966E-01
                       9.8551416473E-02 -2.0853338966E-01 -9.8551416473E-02
                       2.0853338966E-01 -9.8551416473E-02 -9.8551416473E-02
                      -9.8551416473E-02  9.8551416473E-02 -2.0853338966E-01
                      -9.8551416473E-02  2.0853338966E-01 -9.8551416473E-02
                      -2.0853338966E-01  9.8551416473E-02 -9.8551416473E-02
                      -9.8551416473E-02 -9.8551416473E-02  2.0853338966E-01
                      -9.8551416473E-02 -2.0853338966E-01  9.8551416473E-02
                      -2.0853338966E-01 -9.8551416473E-02  9.8551416473E-02
                       2.0853338966E-01  9.8551416473E-02  9.8551416473E-02
                       9.8551416473E-02  2.0853338966E-01  9.8551416473E-02
                       9.8551416473E-02  9.8551416473E-02  2.0853338966E-01
            znucl        1.00000    8.00000   14.00000

 Suggested references for the acknowledgment of ABINIT usage.

 Calculation completed.
.Delivered  19 WARNINGs and  17 COMMENTs to log file.

--- !FinalSummary
program: abinit
version: 9.2.2
start_datetime: Tue Mar 16 16:59:15 2021
end_datetime: Tue Mar 16 20:05:10 2021
overall_cpu_time:       27572.4
overall_wall_time:       11154.6
exit_requested_by_user: no
timelimit: 0
pseudos:
    H   : 314bcaf03656e059fe5e18308886932b
    O   : 53efa4611cf1d581a18f615e1ccbb85d
    Si  : 9cf3649cb539efbe8c67e8db9d375af0
usepaw: 0
mpi_procs: 1
omp_threads: 8
num_warnings: 19
num_comments: 17