.Version 9.2.2 of ABINIT

 ABINIT is a project of the Universite Catholique de Louvain,
 Corning Inc. and other collaborators, see ~abinit/doc/developers/contributors.txt .
 acknowledgments of the ABINIT effort.

.Starting date : Tue 16 Mar 2021.
- ( at 16h59 )

- input  file    -> sth1_relax.in
- output file    -> sth1_relax.abo
- root for input  files -> sth1_relaxi
- root for output files -> sth1_relaxo

 DATASET   11 : space group P-4 3 m (#215); Bravais cP (primitive cubic)
     intxc =       0    ionmov =       0      iscf =       7    lmnmax =       6
     lnmax =       6     mgfft =      32  mpssoang =       3    mqgrid =    3001
     natom =      21  nloc_mem =       1    nspden =       2   nspinor =       1
    nsppol =       2      nsym =      24    n1xccc =    2501    ntypat =       3
    occopt =       3   xclevel =       1
-    mband =         100        mffmem =           1         mkmem =           1
       mpw =        1791          nfft =       32768          nkpt =           1
  Rough estimation (10% accuracy) of disk space for files :

[...]

 DATASET   25 : space group P-4 3 m (#215); Bravais cP (primitive cubic)
     intxc =       0    ionmov =       0      iscf =       7    lmnmax =       6
     lnmax =       6     mgfft =     180  mpssoang =       3    mqgrid =    8215
     natom =      21  nloc_mem =       1    nspden =       2   nspinor =       1
    nsppol =       2      nsym =      24    n1xccc =    2501    ntypat =       3
    occopt =       3   xclevel =       1
-    mband =         100        mffmem =           1         mkmem =           1
       mpw =      290243          nfft =     5832000          nkpt =           1
  Rough estimation (10% accuracy) of disk space for files :

------------- Echo of variables that govern the present computation ------------
-
- outvars: echo of selected default values
-   iomode0 =  0 , fftalg0 =312 , wfoptalg0 =  0
-
- outvars: echo of global parameters not present in the input file
-  max_nthreads =    8
-
 -outvars: echo values of preprocessed input variables --------
            acell11    1.5000000000E+01  1.5000000000E+01  1.5000000000E+01 Bohr
            acell12    1.5000000000E+01  1.5000000000E+01  1.5000000000E+01 Bohr
            acell13    1.5000000000E+01  1.5000000000E+01  1.5000000000E+01 Bohr
            acell14    1.5000000000E+01  1.5000000000E+01  1.5000000000E+01 Bohr
            acell15    1.5000000000E+01  1.5000000000E+01  1.5000000000E+01 Bohr
            acell21    3.0000000000E+01  3.0000000000E+01  3.0000000000E+01 Bohr
            acell22    3.0000000000E+01  3.0000000000E+01  3.0000000000E+01 Bohr
            acell23    3.0000000000E+01  3.0000000000E+01  3.0000000000E+01 Bohr
            acell24    3.0000000000E+01  3.0000000000E+01  3.0000000000E+01 Bohr
            acell25    3.0000000000E+01  3.0000000000E+01  3.0000000000E+01 Bohr
              amu      1.00794000E+00  1.59994000E+01  2.80855000E+01
           charge      1.00000000E+00
           diemac      1.20000000E+01
             ecut11    5.00000000E+00 Hartree
             ecut12    1.30000000E+01 Hartree
             ecut13    2.10000000E+01 Hartree
             ecut14    2.90000000E+01 Hartree
             ecut15    3.70000000E+01 Hartree
             ecut21    5.00000000E+00 Hartree
             ecut22    1.30000000E+01 Hartree
             ecut23    2.10000000E+01 Hartree
             ecut24    2.90000000E+01 Hartree
             ecut25    3.70000000E+01 Hartree
-          fftalg         312
           istwfk        1
              ixc       -1012
           jdtset       11   12   13   14   15   21   22   23   24   25
           kptopt           0
P           mkmem           1
            natom          21
            nband         100
           ndtset          10
            ngfft11        32      32      32
            ngfft12        50      50      50
            ngfft13        64      64      64
            ngfft14        75      75      75
            ngfft15        90      90      90
            ngfft21        64      64      64
            ngfft22       100     100     100
            ngfft23       125     125     125
            ngfft24       150     150     150
            ngfft25       180     180     180
             nkpt           1
           nspden           2
           nsppol           2
            nstep         100
             nsym          24
           ntypat           3
              occ      1.000000  1.000000  1.000000  1.000000  1.000000  1.000000
                       1.000000  1.000000  1.000000  1.000000  1.000000  1.000000
                       1.000000  1.000000  1.000000  1.000000  1.000000  1.000000
                       1.000000  1.000000  1.000000  1.000000  1.000000  1.000000
                       1.000000  1.000000  1.000000  1.000000  0.000000  0.000000
                       0.000000  0.000000  0.000000  0.000000  0.000000  0.000000
                       0.000000  0.000000  0.000000  0.000000  0.000000  0.000000
                       0.000000  0.000000  0.000000  0.000000  0.000000  0.000000
                       0.000000  0.000000  0.000000  0.000000  0.000000  0.000000
                       0.000000  0.000000  0.000000  0.000000  0.000000  0.000000
                       0.000000  0.000000  0.000000  0.000000  0.000000  0.000000
                       0.000000  0.000000  0.000000  0.000000  0.000000  0.000000
                       0.000000  0.000000  0.000000  0.000000  0.000000  0.000000
                       0.000000  0.000000  0.000000  0.000000  0.000000  0.000000
                       0.000000  0.000000  0.000000  0.000000  0.000000  0.000000
                       0.000000  0.000000  0.000000  0.000000  0.000000  0.000000
                       0.000000  0.000000  0.000000  0.000000
                       1.000000  1.000000  1.000000  1.000000  1.000000  1.000000
                       1.000000  1.000000  1.000000  1.000000  1.000000  1.000000
                       1.000000  1.000000  1.000000  1.000000  1.000000  1.000000
                       1.000000  1.000000  1.000000  1.000000  1.000000  1.000000
                       1.000000  1.000000  1.000000  0.000000  0.000000  0.000000
                       0.000000  0.000000  0.000000  0.000000  0.000000  0.000000
                       0.000000  0.000000  0.000000  0.000000  0.000000  0.000000
                       0.000000  0.000000  0.000000  0.000000  0.000000  0.000000
                       0.000000  0.000000  0.000000  0.000000  0.000000  0.000000
                       0.000000  0.000000  0.000000  0.000000  0.000000  0.000000
                       0.000000  0.000000  0.000000  0.000000  0.000000  0.000000
                       0.000000  0.000000  0.000000  0.000000  0.000000  0.000000
                       0.000000  0.000000  0.000000  0.000000  0.000000  0.000000
                       0.000000  0.000000  0.000000  0.000000  0.000000  0.000000
                       0.000000  0.000000  0.000000  0.000000  0.000000  0.000000
                       0.000000  0.000000  0.000000  0.000000  0.000000  0.000000
                       0.000000  0.000000  0.000000  0.000000
           occopt           3
        optforces           1
          spgroup         215
           spinat      0.0000000000E+00  0.0000000000E+00  1.0000000000E-01
                       0.0000000000E+00  0.0000000000E+00  1.0000000000E-01
                       0.0000000000E+00  0.0000000000E+00  1.0000000000E-01
                       0.0000000000E+00  0.0000000000E+00  1.0000000000E-01
                       0.0000000000E+00  0.0000000000E+00  1.0000000000E-01
                       0.0000000000E+00  0.0000000000E+00  1.0000000000E-01
                       0.0000000000E+00  0.0000000000E+00  1.0000000000E-01
                       0.0000000000E+00  0.0000000000E+00  1.0000000000E-01
                       0.0000000000E+00  0.0000000000E+00  1.0000000000E-01
                       0.0000000000E+00  0.0000000000E+00  1.0000000000E-01
                       0.0000000000E+00  0.0000000000E+00  1.0000000000E-01
                       0.0000000000E+00  0.0000000000E+00  1.0000000000E-01
                       0.0000000000E+00  0.0000000000E+00  1.0000000000E-01
                       0.0000000000E+00  0.0000000000E+00  1.0000000000E-01
                       0.0000000000E+00  0.0000000000E+00  1.0000000000E-01
                       0.0000000000E+00  0.0000000000E+00  1.0000000000E-01
                       0.0000000000E+00  0.0000000000E+00  1.0000000000E-01
                       0.0000000000E+00  0.0000000000E+00  1.0000000000E-01
                       0.0000000000E+00  0.0000000000E+00  1.0000000000E-01
                       0.0000000000E+00  0.0000000000E+00  1.0000000000E-01
                       0.0000000000E+00  0.0000000000E+00  1.0000000000E-01
           symrel      1  0  0   0  1  0   0  0  1      -1  0  0   0  1  0   0  0 -1
                      -1  0  0   0 -1  0   0  0  1       1  0  0   0 -1  0   0  0 -1
                       0  1  0   1  0  0   0  0  1       0 -1  0   1  0  0   0  0 -1
                       0 -1  0  -1  0  0   0  0  1       0  1  0  -1  0  0   0  0 -1
                       0  0  1   1  0  0   0  1  0       0  0 -1   1  0  0   0 -1  0
                       0  0 -1  -1  0  0   0  1  0       0  0  1  -1  0  0   0 -1  0
                       1  0  0   0  0  1   0  1  0      -1  0  0   0  0  1   0 -1  0
                      -1  0  0   0  0 -1   0  1  0       1  0  0   0  0 -1   0 -1  0
                       0  1  0   0  0  1   1  0  0       0 -1  0   0  0  1  -1  0  0
                       0 -1  0   0  0 -1   1  0  0       0  1  0   0  0 -1  -1  0  0
                       0  0  1   0  1  0   1  0  0       0  0 -1   0  1  0  -1  0  0
                       0  0 -1   0 -1  0   1  0  0       0  0  1   0 -1  0  -1  0  0
           tolrff      2.00000000E-02
           tsmear      1.00000000E-05 Hartree
            typat      3  3  3  3  3  2  2  2  2  1  1  1  1  1  1  1  1  1  1  1
                       1
           xangst      0.0000000000E+00  0.0000000000E+00  0.0000000000E+00
                       1.8804372284E+00 -1.8804372284E+00 -1.8804372284E+00
                      -1.8804372284E+00  1.8804372284E+00 -1.8804372284E+00
                      -1.8804372284E+00 -1.8804372284E+00  1.8804372284E+00
                       1.8804372284E+00  1.8804372284E+00  1.8804372284E+00
                       9.2904949682E-01 -9.2904949682E-01 -9.2904949682E-01
                      -9.2904949682E-01  9.2904949682E-01 -9.2904949682E-01
                      -9.2904949682E-01 -9.2904949682E-01  9.2904949682E-01
                       9.2904949682E-01  9.2904949682E-01  9.2904949682E-01
                       1.5645349042E+00 -1.5645349042E+00 -3.3105335111E+00
                       1.5645349042E+00 -3.3105335111E+00 -1.5645349042E+00
                       3.3105335111E+00 -1.5645349042E+00 -1.5645349042E+00
                      -1.5645349042E+00  1.5645349042E+00 -3.3105335111E+00
                      -1.5645349042E+00  3.3105335111E+00 -1.5645349042E+00
[...]
                      -6.2560016897E+00  2.9565424942E+00 -2.9565424942E+00
                      -2.9565424942E+00 -2.9565424942E+00  6.2560016897E+00
                      -2.9565424942E+00 -6.2560016897E+00  2.9565424942E+00
                      -6.2560016897E+00 -2.9565424942E+00  2.9565424942E+00
                       6.2560016897E+00  2.9565424942E+00  2.9565424942E+00
                       2.9565424942E+00  6.2560016897E+00  2.9565424942E+00
                       2.9565424942E+00  2.9565424942E+00  6.2560016897E+00
             xred11    0.0000000000E+00  0.0000000000E+00  0.0000000000E+00
                       2.3690075811E-01 -2.3690075811E-01 -2.3690075811E-01
                      -2.3690075811E-01  2.3690075811E-01 -2.3690075811E-01
                      -2.3690075811E-01 -2.3690075811E-01  2.3690075811E-01
                       2.3690075811E-01  2.3690075811E-01  2.3690075811E-01
                       1.1704327419E-01 -1.1704327419E-01 -1.1704327419E-01
                      -1.1704327419E-01  1.1704327419E-01 -1.1704327419E-01
                      -1.1704327419E-01 -1.1704327419E-01  1.1704327419E-01
                       1.1704327419E-01  1.1704327419E-01  1.1704327419E-01
                       1.9710283295E-01 -1.9710283295E-01 -4.1706677931E-01
                       1.9710283295E-01 -4.1706677931E-01 -1.9710283295E-01
                       4.1706677931E-01 -1.9710283295E-01 -1.9710283295E-01
                      -1.9710283295E-01  1.9710283295E-01 -4.1706677931E-01
                      -1.9710283295E-01  4.1706677931E-01 -1.9710283295E-01
                      -4.1706677931E-01  1.9710283295E-01 -1.9710283295E-01
                      -1.9710283295E-01 -1.9710283295E-01  4.1706677931E-01
                      -1.9710283295E-01 -4.1706677931E-01  1.9710283295E-01
                      -4.1706677931E-01 -1.9710283295E-01  1.9710283295E-01
                       4.1706677931E-01  1.9710283295E-01  1.9710283295E-01
                       1.9710283295E-01  4.1706677931E-01  1.9710283295E-01
                       1.9710283295E-01  1.9710283295E-01  4.1706677931E-01
             xred12    0.0000000000E+00  0.0000000000E+00  0.0000000000E+00
                       2.3690075811E-01 -2.3690075811E-01 -2.3690075811E-01
                      -2.3690075811E-01  2.3690075811E-01 -2.3690075811E-01
                      -2.3690075811E-01 -2.3690075811E-01  2.3690075811E-01
                       2.3690075811E-01  2.3690075811E-01  2.3690075811E-01
                       1.1704327419E-01 -1.1704327419E-01 -1.1704327419E-01
                      -1.1704327419E-01  1.1704327419E-01 -1.1704327419E-01
                      -1.1704327419E-01 -1.1704327419E-01  1.1704327419E-01
                       1.1704327419E-01  1.1704327419E-01  1.1704327419E-01
                       1.9710283295E-01 -1.9710283295E-01 -4.1706677931E-01
                       1.9710283295E-01 -4.1706677931E-01 -1.9710283295E-01
                       4.1706677931E-01 -1.9710283295E-01 -1.9710283295E-01
                      -1.9710283295E-01  1.9710283295E-01 -4.1706677931E-01
                      -1.9710283295E-01  4.1706677931E-01 -1.9710283295E-01
                      -4.1706677931E-01  1.9710283295E-01 -1.9710283295E-01
                      -1.9710283295E-01 -1.9710283295E-01  4.1706677931E-01
                      -1.9710283295E-01 -4.1706677931E-01  1.9710283295E-01
                      -4.1706677931E-01 -1.9710283295E-01  1.9710283295E-01
                       4.1706677931E-01  1.9710283295E-01  1.9710283295E-01
                       1.9710283295E-01  4.1706677931E-01  1.9710283295E-01
                       1.9710283295E-01  1.9710283295E-01  4.1706677931E-01
             xred13    0.0000000000E+00  0.0000000000E+00  0.0000000000E+00
                       2.3690075811E-01 -2.3690075811E-01 -2.3690075811E-01
                      -2.3690075811E-01  2.3690075811E-01 -2.3690075811E-01
                      -2.3690075811E-01 -2.3690075811E-01  2.3690075811E-01
                       2.3690075811E-01  2.3690075811E-01  2.3690075811E-01
                       1.1704327419E-01 -1.1704327419E-01 -1.1704327419E-01
                      -1.1704327419E-01  1.1704327419E-01 -1.1704327419E-01
                      -1.1704327419E-01 -1.1704327419E-01  1.1704327419E-01
                       1.1704327419E-01  1.1704327419E-01  1.1704327419E-01
                       1.9710283295E-01 -1.9710283295E-01 -4.1706677931E-01
                       1.9710283295E-01 -4.1706677931E-01 -1.9710283295E-01
                       4.1706677931E-01 -1.9710283295E-01 -1.9710283295E-01
                      -1.9710283295E-01  1.9710283295E-01 -4.1706677931E-01
                      -1.9710283295E-01  4.1706677931E-01 -1.9710283295E-01
                      -4.1706677931E-01  1.9710283295E-01 -1.9710283295E-01
                      -1.9710283295E-01 -1.9710283295E-01  4.1706677931E-01
                      -1.9710283295E-01 -4.1706677931E-01  1.9710283295E-01
                      -4.1706677931E-01 -1.9710283295E-01  1.9710283295E-01
                       4.1706677931E-01  1.9710283295E-01  1.9710283295E-01
                       1.9710283295E-01  4.1706677931E-01  1.9710283295E-01
                       1.9710283295E-01  1.9710283295E-01  4.1706677931E-01
             xred14    0.0000000000E+00  0.0000000000E+00  0.0000000000E+00
                       2.3690075811E-01 -2.3690075811E-01 -2.3690075811E-01
                      -2.3690075811E-01  2.3690075811E-01 -2.3690075811E-01
                      -2.3690075811E-01 -2.3690075811E-01  2.3690075811E-01
                       2.3690075811E-01  2.3690075811E-01  2.3690075811E-01
                       1.1704327419E-01 -1.1704327419E-01 -1.1704327419E-01
                      -1.1704327419E-01  1.1704327419E-01 -1.1704327419E-01
                      -1.1704327419E-01 -1.1704327419E-01  1.1704327419E-01
                       1.1704327419E-01  1.1704327419E-01  1.1704327419E-01
                       1.9710283295E-01 -1.9710283295E-01 -4.1706677931E-01
                       1.9710283295E-01 -4.1706677931E-01 -1.9710283295E-01
                       4.1706677931E-01 -1.9710283295E-01 -1.9710283295E-01
                      -1.9710283295E-01  1.9710283295E-01 -4.1706677931E-01
                      -1.9710283295E-01  4.1706677931E-01 -1.9710283295E-01
                      -4.1706677931E-01  1.9710283295E-01 -1.9710283295E-01
                      -1.9710283295E-01 -1.9710283295E-01  4.1706677931E-01
                      -1.9710283295E-01 -4.1706677931E-01  1.9710283295E-01
                      -4.1706677931E-01 -1.9710283295E-01  1.9710283295E-01
                       4.1706677931E-01  1.9710283295E-01  1.9710283295E-01
                       1.9710283295E-01  4.1706677931E-01  1.9710283295E-01
                       1.9710283295E-01  1.9710283295E-01  4.1706677931E-01
             xred15    0.0000000000E+00  0.0000000000E+00  0.0000000000E+00
                       2.3690075811E-01 -2.3690075811E-01 -2.3690075811E-01
                      -2.3690075811E-01  2.3690075811E-01 -2.3690075811E-01
                      -2.3690075811E-01 -2.3690075811E-01  2.3690075811E-01
                       2.3690075811E-01  2.3690075811E-01  2.3690075811E-01
                       1.1704327419E-01 -1.1704327419E-01 -1.1704327419E-01
                      -1.1704327419E-01  1.1704327419E-01 -1.1704327419E-01
                      -1.1704327419E-01 -1.1704327419E-01  1.1704327419E-01
                       1.1704327419E-01  1.1704327419E-01  1.1704327419E-01
                       1.9710283295E-01 -1.9710283295E-01 -4.1706677931E-01
                       1.9710283295E-01 -4.1706677931E-01 -1.9710283295E-01
                       4.1706677931E-01 -1.9710283295E-01 -1.9710283295E-01
                      -1.9710283295E-01  1.9710283295E-01 -4.1706677931E-01
                      -1.9710283295E-01  4.1706677931E-01 -1.9710283295E-01
                      -4.1706677931E-01  1.9710283295E-01 -1.9710283295E-01
                      -1.9710283295E-01 -1.9710283295E-01  4.1706677931E-01
                      -1.9710283295E-01 -4.1706677931E-01  1.9710283295E-01
                      -4.1706677931E-01 -1.9710283295E-01  1.9710283295E-01
                       4.1706677931E-01  1.9710283295E-01  1.9710283295E-01
                       1.9710283295E-01  4.1706677931E-01  1.9710283295E-01
                       1.9710283295E-01  1.9710283295E-01  4.1706677931E-01
             xred21    0.0000000000E+00  0.0000000000E+00  0.0000000000E+00
                       1.1845037906E-01 -1.1845037906E-01 -1.1845037906E-01
                      -1.1845037906E-01  1.1845037906E-01 -1.1845037906E-01
                      -1.1845037906E-01 -1.1845037906E-01  1.1845037906E-01
                       1.1845037906E-01  1.1845037906E-01  1.1845037906E-01
                       5.8521637096E-02 -5.8521637096E-02 -5.8521637096E-02
                      -5.8521637096E-02  5.8521637096E-02 -5.8521637096E-02
                      -5.8521637096E-02 -5.8521637096E-02  5.8521637096E-02
                       5.8521637096E-02  5.8521637096E-02  5.8521637096E-02
                       9.8551416473E-02 -9.8551416473E-02 -2.0853338966E-01
                       9.8551416473E-02 -2.0853338966E-01 -9.8551416473E-02
                       2.0853338966E-01 -9.8551416473E-02 -9.8551416473E-02
                      -9.8551416473E-02  9.8551416473E-02 -2.0853338966E-01
                      -9.8551416473E-02  2.0853338966E-01 -9.8551416473E-02
                      -2.0853338966E-01  9.8551416473E-02 -9.8551416473E-02
                      -9.8551416473E-02 -9.8551416473E-02  2.0853338966E-01
                      -9.8551416473E-02 -2.0853338966E-01  9.8551416473E-02
                      -2.0853338966E-01 -9.8551416473E-02  9.8551416473E-02
                       2.0853338966E-01  9.8551416473E-02  9.8551416473E-02
                       9.8551416473E-02  2.0853338966E-01  9.8551416473E-02
                       9.8551416473E-02  9.8551416473E-02  2.0853338966E-01
             xred22    0.0000000000E+00  0.0000000000E+00  0.0000000000E+00
                       1.1845037906E-01 -1.1845037906E-01 -1.1845037906E-01
                      -1.1845037906E-01  1.1845037906E-01 -1.1845037906E-01
                      -1.1845037906E-01 -1.1845037906E-01  1.1845037906E-01
                       1.1845037906E-01  1.1845037906E-01  1.1845037906E-01
                       5.8521637096E-02 -5.8521637096E-02 -5.8521637096E-02
                      -5.8521637096E-02  5.8521637096E-02 -5.8521637096E-02
                      -5.8521637096E-02 -5.8521637096E-02  5.8521637096E-02
                       5.8521637096E-02  5.8521637096E-02  5.8521637096E-02
                       9.8551416473E-02 -9.8551416473E-02 -2.0853338966E-01
                       9.8551416473E-02 -2.0853338966E-01 -9.8551416473E-02
                       2.0853338966E-01 -9.8551416473E-02 -9.8551416473E-02
                      -9.8551416473E-02  9.8551416473E-02 -2.0853338966E-01
                      -9.8551416473E-02  2.0853338966E-01 -9.8551416473E-02
                      -2.0853338966E-01  9.8551416473E-02 -9.8551416473E-02
                      -9.8551416473E-02 -9.8551416473E-02  2.0853338966E-01
                      -9.8551416473E-02 -2.0853338966E-01  9.8551416473E-02
                      -2.0853338966E-01 -9.8551416473E-02  9.8551416473E-02
                       2.0853338966E-01  9.8551416473E-02  9.8551416473E-02
                       9.8551416473E-02  2.0853338966E-01  9.8551416473E-02
                       9.8551416473E-02  9.8551416473E-02  2.0853338966E-01
             xred23    0.0000000000E+00  0.0000000000E+00  0.0000000000E+00
                       1.1845037906E-01 -1.1845037906E-01 -1.1845037906E-01
                      -1.1845037906E-01  1.1845037906E-01 -1.1845037906E-01
                      -1.1845037906E-01 -1.1845037906E-01  1.1845037906E-01
                       1.1845037906E-01  1.1845037906E-01  1.1845037906E-01
                       5.8521637096E-02 -5.8521637096E-02 -5.8521637096E-02
                      -5.8521637096E-02  5.8521637096E-02 -5.8521637096E-02
                      -5.8521637096E-02 -5.8521637096E-02  5.8521637096E-02
                       5.8521637096E-02  5.8521637096E-02  5.8521637096E-02
                       9.8551416473E-02 -9.8551416473E-02 -2.0853338966E-01
                       9.8551416473E-02 -2.0853338966E-01 -9.8551416473E-02
                       2.0853338966E-01 -9.8551416473E-02 -9.8551416473E-02
                      -9.8551416473E-02  9.8551416473E-02 -2.0853338966E-01
                      -9.8551416473E-02  2.0853338966E-01 -9.8551416473E-02
                      -2.0853338966E-01  9.8551416473E-02 -9.8551416473E-02
                      -9.8551416473E-02 -9.8551416473E-02  2.0853338966E-01
                      -9.8551416473E-02 -2.0853338966E-01  9.8551416473E-02
                      -2.0853338966E-01 -9.8551416473E-02  9.8551416473E-02
                       2.0853338966E-01  9.8551416473E-02  9.8551416473E-02
                       9.8551416473E-02  2.0853338966E-01  9.8551416473E-02
                       9.8551416473E-02  9.8551416473E-02  2.0853338966E-01
             xred24    0.0000000000E+00  0.0000000000E+00  0.0000000000E+00
                       1.1845037906E-01 -1.1845037906E-01 -1.1845037906E-01
                      -1.1845037906E-01  1.1845037906E-01 -1.1845037906E-01
                      -1.1845037906E-01 -1.1845037906E-01  1.1845037906E-01
                       1.1845037906E-01  1.1845037906E-01  1.1845037906E-01
                       5.8521637096E-02 -5.8521637096E-02 -5.8521637096E-02
                      -5.8521637096E-02  5.8521637096E-02 -5.8521637096E-02
                      -5.8521637096E-02 -5.8521637096E-02  5.8521637096E-02
                       5.8521637096E-02  5.8521637096E-02  5.8521637096E-02
                       9.8551416473E-02 -9.8551416473E-02 -2.0853338966E-01
                       9.8551416473E-02 -2.0853338966E-01 -9.8551416473E-02
                       2.0853338966E-01 -9.8551416473E-02 -9.8551416473E-02
                      -9.8551416473E-02  9.8551416473E-02 -2.0853338966E-01
                      -9.8551416473E-02  2.0853338966E-01 -9.8551416473E-02
                      -2.0853338966E-01  9.8551416473E-02 -9.8551416473E-02
                      -9.8551416473E-02 -9.8551416473E-02  2.0853338966E-01
                      -9.8551416473E-02 -2.0853338966E-01  9.8551416473E-02
                      -2.0853338966E-01 -9.8551416473E-02  9.8551416473E-02
                       2.0853338966E-01  9.8551416473E-02  9.8551416473E-02
                       9.8551416473E-02  2.0853338966E-01  9.8551416473E-02
                       9.8551416473E-02  9.8551416473E-02  2.0853338966E-01
             xred25    0.0000000000E+00  0.0000000000E+00  0.0000000000E+00
                       1.1845037906E-01 -1.1845037906E-01 -1.1845037906E-01
                      -1.1845037906E-01  1.1845037906E-01 -1.1845037906E-01
                      -1.1845037906E-01 -1.1845037906E-01  1.1845037906E-01
                       1.1845037906E-01  1.1845037906E-01  1.1845037906E-01
                       5.8521637096E-02 -5.8521637096E-02 -5.8521637096E-02
                      -5.8521637096E-02  5.8521637096E-02 -5.8521637096E-02
                      -5.8521637096E-02 -5.8521637096E-02  5.8521637096E-02
                       5.8521637096E-02  5.8521637096E-02  5.8521637096E-02
                       9.8551416473E-02 -9.8551416473E-02 -2.0853338966E-01
                       9.8551416473E-02 -2.0853338966E-01 -9.8551416473E-02
                       2.0853338966E-01 -9.8551416473E-02 -9.8551416473E-02
                      -9.8551416473E-02  9.8551416473E-02 -2.0853338966E-01
                      -9.8551416473E-02  2.0853338966E-01 -9.8551416473E-02
                      -2.0853338966E-01  9.8551416473E-02 -9.8551416473E-02
                      -9.8551416473E-02 -9.8551416473E-02  2.0853338966E-01
                      -9.8551416473E-02 -2.0853338966E-01  9.8551416473E-02
                      -2.0853338966E-01 -9.8551416473E-02  9.8551416473E-02
                       2.0853338966E-01  9.8551416473E-02  9.8551416473E-02
                       9.8551416473E-02  2.0853338966E-01  9.8551416473E-02
                       9.8551416473E-02  9.8551416473E-02  2.0853338966E-01
            znucl        1.00000    8.00000   14.00000

- Timing analysis has been suppressed with timopt=0

 Suggested references for the acknowledgment of ABINIT usage.

 Calculation completed.
.Delivered  19 WARNINGs and  17 COMMENTs to log file.