.Version 9.2.2 of ABINIT

 ABINIT is a project of the Universite Catholique de Louvain,
 Corning Inc. and other collaborators, see ~abinit/doc/developers/contributors.txt .
 acknowledgments of the ABINIT effort.

.Starting date : Thu 11 Mar 2021.
- ( at 21h03 )

- input  file    -> sth1_relax.in
- output file    -> sth1_relax.abo
- root for input  files -> sth1_relaxi
- root for output files -> sth1_relaxo

 DATASET    1 : space group Pm m 2 (# 25); Bravais oP (primitive ortho.)
     intxc =       0    ionmov =       0      iscf =       7    lmnmax =       6
     lnmax =       6     mgfft =      48  mpssoang =       3    mqgrid =    3001
     natom =       9  nloc_mem =       1    nspden =       1   nspinor =       1
    nsppol =       1      nsym =       4    n1xccc =    2501    ntypat =       3
    occopt =       1   xclevel =       1
-    mband =          20        mffmem =           1         mkmem =           1
       mpw =        6776          nfft =      110592          nkpt =           1
  Rough estimation (10% accuracy) of disk space for files :

------------- Echo of variables that govern the present computation ------------
-
- outvars: echo of selected default values
-   iomode0 =  0 , fftalg0 =312 , wfoptalg0 =  0
-
- outvars: echo of global parameters not present in the input file
-  max_nthreads =    8
-
 -outvars: echo values of preprocessed input variables --------
            acell      1.5000000000E+01  1.5000000000E+01  1.5000000000E+01 Bohr
              amu      1.00794000E+00  1.59994000E+01  2.80855000E+01
           diemac      1.20000000E+01
             ecut      1.20000000E+01 Hartree
-          fftalg         312
           istwfk        1
              ixc       -1012
           jdtset        1
              kpt      5.00000000E-01  5.00000000E-01  5.00000000E-01
         kptrlatt        1    0    0      0    1    0      0    0    1
          kptrlen      1.50000000E+01
P           mkmem           1
            natom           9
            nband          20
           ndtset           1
            ngfft          48      48      48
             nkpt           1
            nstep         100
             nsym           4
           ntypat           3
              occ      2.000000  2.000000  2.000000  2.000000  2.000000  2.000000
                       2.000000  2.000000  2.000000  2.000000  2.000000  0.000000
                       0.000000  0.000000  0.000000  0.000000  0.000000  0.000000
                       0.000000  0.000000
        optforces           1
           shiftk      5.00000000E-01  5.00000000E-01  5.00000000E-01
          spgroup          25
           symrel      1  0  0   0  1  0   0  0  1      -1  0  0   0  1  0   0  0 -1
                       1  0  0   0  1  0   0  0 -1      -1  0  0   0  1  0   0  0  1
           tolrff      2.00000000E-02
            typat      3  2  2  1  1  1  1  1  1
           xangst     -5.2838642121E-18 -6.6622102815E-01  1.4932249105E-18
                      -1.2277194056E+00 -1.8208787050E+00  1.4932249105E-18
                       1.2277194056E+00 -1.8208787050E+00  1.4932249105E-18
                      -2.7027111349E+00  7.0763782974E-01 -3.9024855403E-01
                      -2.7027111349E+00  7.0763782974E-01  3.9024855403E-01
                      -2.1013010154E+00 -1.2351174285E+00  1.4932249105E-18
                       2.7027111349E+00  7.0763782974E-01 -3.9024855403E-01
                       2.7027111349E+00  7.0763782974E-01  3.9024855403E-01
                       2.1013010154E+00 -1.2351174285E+00  1.4932249105E-18
            xcart     -9.9850562843E-18 -1.2589752872E+00  2.8217861356E-18
                      -2.3200534445E+00 -3.4409620737E+00  2.8217861356E-18
                       2.3200534445E+00 -3.4409620737E+00  2.8217861356E-18
                      -5.1073838613E+00  1.3372416995E+00 -7.3746289087E-01
                      -5.1073838613E+00  1.3372416995E+00  7.3746289087E-01
                      -3.9708834419E+00 -2.3340336817E+00  2.8217861356E-18
                       5.1073838613E+00  1.3372416995E+00 -7.3746289087E-01
                       5.1073838613E+00  1.3372416995E+00  7.3746289087E-01
                       3.9708834419E+00 -2.3340336817E+00  2.8217861356E-18
             xred     -6.6567041895E-19 -8.3931685811E-02  1.8811907571E-19
                      -1.5467022964E-01 -2.2939747158E-01  1.8811907571E-19
                       1.5467022964E-01 -2.2939747158E-01  1.8811907571E-19
                      -3.4049225742E-01  8.9149446632E-02 -4.9164192725E-02
                      -3.4049225742E-01  8.9149446632E-02  4.9164192725E-02
                      -2.6472556279E-01 -1.5560224545E-01  1.8811907571E-19
                       3.4049225742E-01  8.9149446632E-02 -4.9164192725E-02
                       3.4049225742E-01  8.9149446632E-02  4.9164192725E-02
                       2.6472556279E-01 -1.5560224545E-01  1.8811907571E-19
            znucl        1.00000    8.00000   14.00000

 chkinp: Checking input parameters for consistency, jdtset=   1.

== DATASET  1 ==================================================================
-   mpi_nproc: 4, omp_nthreads: 8 (-1 if OMP is not activated)
-    --> not optimal distribution: autoparal keyword recommended in input file <--

--- !DatasetInfo
iteration_state: {dtset: 1, }
dimensions: {natom: 9, nkpt: 1, mband: 20, nsppol: 1, nspinor: 1, nspden: 1, mpw: 6776, }
cutoff_energies: {ecut:  12.0, pawecutdg:  -1.0, }
electrons: {nelect:   2.20000000E+01, charge:   0.00000000E+00, occopt:   1.00000000E+00, tsmear:   1.00000000E-02, }
meta: {optdriver: 0, ionmov: 0, optcell: 0, iscf: 7, paral_kgb: 0, }
...

 Real(R)+Recip(G) space primitive vectors, cartesian coordinates (Bohr,Bohr^-1):
 R(1)= 15.0000000  0.0000000  0.0000000  G(1)=  0.0666667  0.0000000  0.0000000
 R(2)=  0.0000000 15.0000000  0.0000000  G(2)=  0.0000000  0.0666667  0.0000000
 R(3)=  0.0000000  0.0000000 15.0000000  G(3)=  0.0000000  0.0000000  0.0666667
 Unit cell volume ucvol=  3.3750000E+03 bohr^3
 Angles (23,13,12)=  9.00000000E+01  9.00000000E+01  9.00000000E+01 degrees

 getcut: wavevector=  0.0000  0.0000  0.0000  ngfft=  48  48  48
         ecut(hartree)=     12.000   => boxcut(ratio)=   2.05208

--- Pseudopotential description ------------------------------------------------
- H     ONCVPSP-3.3.0  r_core=   1.00957   0.90680
-  1.00000   1.00000    171101                znucl, zion, pspdat
    8   -1012    1    4       300   0.00000   pspcod,pspxc,lmax,lloc,mmax,r2well
    2.99000000000000    0.00000000000000    0.00000000000000   rchrg,fchrg,qchrg
     nproj     2     1
     extension_switch     1
  pspatm : epsatm=    0.35491505
         --- l  ekb(1:nproj) -->
             0   -1.665338   -0.519510
             1   -0.275071
 pspatm: atomic psp has been read  and splines computed

- O     ONCVPSP-3.3.0  r_core=   1.35509   1.45563   1.35509
-  8.00000   6.00000    171101                znucl, zion, pspdat
    8   -1012    2    4       600   0.00000   pspcod,pspxc,lmax,lloc,mmax,r2well
    5.99000000000000    4.00000000000000    0.00000000000000   rchrg,fchrg,qchrg
     nproj     2     2     1
     extension_switch     1
  pspatm : epsatm=    6.27558977
         --- l  ekb(1:nproj) -->
             0    6.026028    0.816167
             1   -4.798959   -1.172522
             2   -1.033686
 pspatm: atomic psp has been read  and splines computed

- Si    ONCVPSP-3.3.0  r_core=   1.60303   1.72197   1.91712
- 14.00000   4.00000    171102                znucl, zion, pspdat
    8   -1012    2    4       600   0.00000   pspcod,pspxc,lmax,lloc,mmax,r2well
    5.99000000000000    4.00000000000000    0.00000000000000   rchrg,fchrg,qchrg
     nproj     2     2     2
     extension_switch     1
  pspatm : epsatm=    6.67004110
         --- l  ekb(1:nproj) -->
             0    5.565958    0.856966
             1    2.726111    0.629828
             2   -2.124804   -0.444604
 pspatm: atomic psp has been read  and splines computed

   4.69715640E+02                                ecore*ucvol(ha*bohr**3)

_setup2: Arith. and geom. avg. npw (full set) are    6776.000    6776.000

--- !BeginCycle
iteration_state: {dtset: 1, }
solver: {iscf: 7, nstep: 100, nline: 4, wfoptalg: 0, }
tolerances: {tolrff: 2.00E-02, }
...

     iter   Etot(hartree)      deltaE(h)  residm     vres2    diffor    maxfor
 ETOT  1  -39.493051528773    -3.949E+01 3.193E-02 1.925E+02 1.194E-01 1.194E-01
 ETOT  2  -39.601719282256    -1.087E-01 3.285E-04 1.582E+01 1.311E-01 3.552E-02
 ETOT  3  -39.603241696403    -1.522E-03 1.035E-04 3.903E+00 6.848E-02 3.296E-02
 ETOT  4  -39.603439612137    -1.979E-04 4.937E-05 3.407E+00 5.800E-02 2.504E-02
 ETOT  5  -39.604844701246    -1.405E-03 2.362E-05 4.501E-01 2.726E-02 2.214E-03
 ETOT  6  -39.604861766722    -1.707E-05 4.620E-05 1.039E-01 1.754E-03 5.910E-04
 ETOT  7  -39.604862600103    -8.334E-07 2.137E-05 2.148E-02 1.068E-03 6.082E-04
 ETOT  8  -39.604862911167    -3.111E-07 9.350E-05 4.016E-03 5.663E-04 1.695E-04
 ETOT  9  -39.604863009702    -9.853E-08 2.977E-05 4.404E-04 2.002E-04 4.350E-05
 ETOT 10  -39.604863018276    -8.575E-09 1.144E-04 6.174E-05 8.896E-05 5.821E-05
 ETOT 11  -39.604863019405    -1.128E-09 2.445E-05 5.549E-06 2.731E-05 3.090E-05
 ETOT 12  -39.604863019580    -1.750E-10 8.022E-05 5.667E-07 7.206E-06 3.810E-05
 ETOT 13  -39.604863019599    -1.887E-11 1.336E-05 1.371E-07 7.939E-06 3.766E-05
 ETOT 14  -39.604863019601    -2.636E-12 3.914E-05 4.680E-08 2.437E-06 3.831E-05
 ETOT 15  -39.604863019602    -6.679E-13 5.829E-06 8.956E-09 1.660E-06 3.855E-05
 ETOT 16  -39.604863019601     4.050E-13 1.607E-05 2.330E-09 1.430E-06 3.818E-05
 ETOT 17  -39.604863019602    -2.345E-13 2.294E-06 5.425E-10 6.780E-07 3.853E-05
 ETOT 18  -39.604863019602    -2.842E-13 6.152E-06 2.889E-11 4.061E-08 3.855E-05

 At SCF step   18, forces are sufficiently converged :
  for the second time, max diff in force=  4.061E-08 is less than < tolrff=  2.000E-02 times max force

 Cartesian components of stress tensor (hartree/bohr^3)
  sigma(1 1)=  4.57122563E-04  sigma(3 2)=  0.00000000E+00
  sigma(2 2)=  4.86584663E-04  sigma(3 1)=  0.00000000E+00
  sigma(3 3)=  5.04869981E-04  sigma(2 1)=  0.00000000E+00

--- !ResultsGS
iteration_state: {dtset: 1, }
comment   : Summary of ground state results
lattice_vectors:
- [ 15.0000000,   0.0000000,   0.0000000, ]
- [  0.0000000,  15.0000000,   0.0000000, ]
- [  0.0000000,   0.0000000,  15.0000000, ]
lattice_lengths: [  15.00000,   15.00000,   15.00000, ]
lattice_angles: [ 90.000,  90.000,  90.000, ] # degrees, (23, 13, 12)
lattice_volume:   3.3750000E+03
convergence: {deltae: -2.842E-13, res2:  2.889E-11, residm:  6.152E-06, diffor:  4.061E-08, }
etotal    :  -3.96048630E+01
entropy   :   0.00000000E+00
fermie    :  -1.81566954E-01
cartesian_stress_tensor: # hartree/bohr^3
- [  4.57122563E-04,   0.00000000E+00,   0.00000000E+00, ]
- [  0.00000000E+00,   4.86584663E-04,   0.00000000E+00, ]
- [  0.00000000E+00,   0.00000000E+00,   5.04869981E-04, ]
pressure_GPa:  -1.4206E+01
xred      :
- [ -6.6567E-19,  -8.3932E-02,   1.8812E-19, Si]
- [ -1.5467E-01,  -2.2940E-01,   1.8812E-19,  O]
- [  1.5467E-01,  -2.2940E-01,   1.8812E-19,  O]
- [ -3.4049E-01,   8.9149E-02,  -4.9164E-02,  H]
- [ -3.4049E-01,   8.9149E-02,   4.9164E-02,  H]
- [ -2.6473E-01,  -1.5560E-01,   1.8812E-19,  H]
- [  3.4049E-01,   8.9149E-02,  -4.9164E-02,  H]
- [  3.4049E-01,   8.9149E-02,   4.9164E-02,  H]
- [  2.6473E-01,  -1.5560E-01,   1.8812E-19,  H]
cartesian_forces: # hartree/bohr
- [ -3.76459088E-22,  -2.71867106E-06,  -0.00000000E+00, ]
- [  3.85454368E-05,  -9.09265363E-06,  -0.00000000E+00, ]
- [ -3.85454368E-05,  -9.09265363E-06,  -0.00000000E+00, ]
- [  1.07962884E-06,   7.35290664E-07,   4.41871222E-06, ]
- [  1.07962884E-06,   7.35290664E-07,  -4.41871222E-06, ]
- [ -1.58525978E-05,   8.98140783E-06,  -0.00000000E+00, ]
- [ -1.07962884E-06,   7.35290664E-07,   4.41871222E-06, ]
- [ -1.07962884E-06,   7.35290664E-07,  -4.41871222E-06, ]
- [  1.58525978E-05,   8.98140783E-06,  -0.00000000E+00, ]
force_length_stats: {min:   2.71867106E-06, max:   3.96033717E-05, mean:   1.51996103E-05, }
...

 Integrated electronic density in atomic spheres:
 Atom  Sphere_radius  Integrated_density
    1        2.00000          1.93959701
    2        2.00000          6.18693507
    3        2.00000          6.18693507
    4        2.00000          1.43888826
    5        2.00000          1.43888826
    6        2.00000          2.89055361
    7        2.00000          1.43888826
    8        2.00000          1.43888826
    9        2.00000          2.89055361

 ----iterations are completed or convergence reached----

 Mean square residual over all n,k,spin=   30.760E-08; max=  61.521E-07
 reduced coordinates (array xred) for    9 atoms
      -0.000000000000     -0.083931685811      0.000000000000
      -0.154670229635     -0.229397471577      0.000000000000
       0.154670229635     -0.229397471577      0.000000000000
      -0.340492257421      0.089149446632     -0.049164192725
      -0.340492257421      0.089149446632      0.049164192725
      -0.264725562793     -0.155602245449      0.000000000000
       0.340492257421      0.089149446632     -0.049164192725
       0.340492257421      0.089149446632      0.049164192725
       0.264725562793     -0.155602245449      0.000000000000
 rms dE/dt=  2.1454E-04; max dE/dt=  5.7818E-04; dE/dt below (all hartree)
    1       0.000000000000     -0.000161105411      0.000000000000
    2      -0.000578181552     -0.000065495673      0.000000000000
    3       0.000578181552     -0.000065495673      0.000000000000
    4      -0.000016194433     -0.000212914837     -0.000066280683
    5      -0.000016194433     -0.000212914837      0.000066280683
    6       0.000237788967     -0.000336606595      0.000000000000
    7       0.000016194433     -0.000212914837     -0.000066280683
    8       0.000016194433     -0.000212914837      0.000066280683
    9      -0.000237788967     -0.000336606595      0.000000000000

 cartesian coordinates (angstrom) at end:
    1     -0.00000000000000    -0.66622102814569     0.00000000000000
    2     -1.22771940555452    -1.82087870499846     0.00000000000000
    3      1.22771940555453    -1.82087870499846     0.00000000000000
    4     -2.70271113493149     0.70763782974341    -0.39024855403019
    5     -2.70271113493149     0.70763782974341     0.39024855403019
    6     -2.10130101541545    -1.23511742845619     0.00000000000000
    7      2.70271113493149     0.70763782974341    -0.39024855403019
    8      2.70271113493148     0.70763782974341     0.39024855403019
    9      2.10130101541545    -1.23511742845619     0.00000000000000

 cartesian forces (hartree/bohr) at end:
    1     -0.00000000000000    -0.00000271867106    -0.00000000000000
    2      0.00003854543679    -0.00000909265363    -0.00000000000000
    3     -0.00003854543679    -0.00000909265363    -0.00000000000000
    4      0.00000107962884     0.00000073529066     0.00000441871222
    5      0.00000107962884     0.00000073529066    -0.00000441871222
    6     -0.00001585259783     0.00000898140783    -0.00000000000000
    7     -0.00000107962884     0.00000073529066     0.00000441871222
    8     -0.00000107962884     0.00000073529066    -0.00000441871222
    9      0.00001585259783     0.00000898140783    -0.00000000000000
 frms,max,avg= 1.2007885E-05 3.8545437E-05   0.000E+00  1.346E-05  0.000E+00 h/b

 cartesian forces (eV/Angstrom) at end:
    1     -0.00000000000000    -0.00013979967498    -0.00000000000000
    2      0.00198208588624    -0.00046756300970    -0.00000000000000
    3     -0.00198208588624    -0.00046756300970    -0.00000000000000
    4      0.00005551674226     0.00003781016300     0.00022721929885
    5      0.00005551674226     0.00003781016300    -0.00022721929885
    6     -0.00081517328726     0.00046184252119    -0.00000000000000
    7     -0.00005551674226     0.00003781016300     0.00022721929885
    8     -0.00005551674226     0.00003781016300    -0.00022721929885
    9      0.00081517328726     0.00046184252119    -0.00000000000000
 frms,max,avg= 6.1747024E-04 1.9820859E-03   0.000E+00  6.921E-04  0.000E+00 e/A
 length scales= 15.000000000000 15.000000000000 15.000000000000 bohr
              =  7.937658128850  7.937658128850  7.937658128850 angstroms
 prteigrs : about to open file sth1_relaxo_DS1_EIG
 Fermi (or HOMO) energy (hartree) =  -0.18157   Average Vxc (hartree)=  -0.09589
 Eigenvalues (hartree) for nkpt=   1  k points:
 kpt#   1, nband= 20, wtk=  1.00000, kpt=  0.5000  0.5000  0.5000 (reduced coord)
  -0.98383   -0.96235   -0.47076   -0.40376   -0.38889   -0.36363   -0.33483   -0.31730
  -0.29675   -0.25360   -0.18157   -0.05091   -0.00810   -0.00586    0.00862    0.02998
   0.05588    0.06513    0.07009    0.07859

--- !EnergyTerms
iteration_state     : {dtset: 1, }
comment             : Components of total free energy in Hartree
kinetic             :  2.30479881679875E+01
hartree             :  3.55719382199992E+01
xc                  : -1.12677048822798E+01
Ewald energy        :  4.11444777904443E+00
psp_core            :  1.39175004409221E-01
local_psp           : -8.87321765981952E+01
non_local_psp       : -2.47853071056736E+00
total_energy        : -3.96048630196019E+01
total_energy_eV     : -1.07770313034911E+03
band_energy         : -9.91453664535365E+00
...

 Cartesian components of stress tensor (hartree/bohr^3)
  sigma(1 1)=  4.57122563E-04  sigma(3 2)=  0.00000000E+00
  sigma(2 2)=  4.86584663E-04  sigma(3 1)=  0.00000000E+00
  sigma(3 3)=  5.04869981E-04  sigma(2 1)=  0.00000000E+00

-Cartesian components of stress tensor (GPa)         [Pressure= -1.4206E+01 GPa]
- sigma(1 1)=  1.34490079E+01  sigma(3 2)=  0.00000000E+00
- sigma(2 2)=  1.43158126E+01  sigma(3 1)=  0.00000000E+00
- sigma(3 3)=  1.48537852E+01  sigma(2 1)=  0.00000000E+00

== END DATASET(S) ==============================================================

 -outvars: echo values of variables after computation  --------
            acell      1.5000000000E+01  1.5000000000E+01  1.5000000000E+01 Bohr
              amu      1.00794000E+00  1.59994000E+01  2.80855000E+01
           diemac      1.20000000E+01
             ecut      1.20000000E+01 Hartree
           etotal1    -3.9604863020E+01
            fcart1    -3.7645908767E-22 -2.7186710587E-06 -0.0000000000E+00
                       3.8545436787E-05 -9.0926536330E-06 -0.0000000000E+00
                      -3.8545436787E-05 -9.0926536330E-06 -0.0000000000E+00
                       1.0796288366E-06  7.3529066423E-07  4.4187122169E-06
                       1.0796288366E-06  7.3529066423E-07 -4.4187122169E-06
                      -1.5852597828E-05  8.9814078339E-06 -0.0000000000E+00
                      -1.0796288366E-06  7.3529066423E-07  4.4187122169E-06
                      -1.0796288366E-06  7.3529066423E-07 -4.4187122169E-06
                       1.5852597828E-05  8.9814078339E-06 -0.0000000000E+00
-          fftalg         312
           istwfk        1
              ixc       -1012
           jdtset        1
              kpt      5.00000000E-01  5.00000000E-01  5.00000000E-01
         kptrlatt        1    0    0      0    1    0      0    0    1
          kptrlen      1.50000000E+01
P           mkmem           1
            natom           9
            nband          20
           ndtset           1
            ngfft          48      48      48
             nkpt           1
            nstep         100
             nsym           4
           ntypat           3
              occ      2.000000  2.000000  2.000000  2.000000  2.000000  2.000000
                       2.000000  2.000000  2.000000  2.000000  2.000000  0.000000
                       0.000000  0.000000  0.000000  0.000000  0.000000  0.000000
                       0.000000  0.000000
        optforces           1
           shiftk      5.00000000E-01  5.00000000E-01  5.00000000E-01
          spgroup          25
           strten1     4.5712256327E-04  4.8658466278E-04  5.0486998144E-04
                       0.0000000000E+00  0.0000000000E+00  0.0000000000E+00
           symrel      1  0  0   0  1  0   0  0  1      -1  0  0   0  1  0   0  0 -1
                       1  0  0   0  1  0   0  0 -1      -1  0  0   0  1  0   0  0  1
           tolrff      2.00000000E-02
            typat      3  2  2  1  1  1  1  1  1
           xangst     -5.2838642121E-18 -6.6622102815E-01  1.4932249105E-18
                      -1.2277194056E+00 -1.8208787050E+00  1.4932249105E-18
                       1.2277194056E+00 -1.8208787050E+00  1.4932249105E-18
                      -2.7027111349E+00  7.0763782974E-01 -3.9024855403E-01
                      -2.7027111349E+00  7.0763782974E-01  3.9024855403E-01
                      -2.1013010154E+00 -1.2351174285E+00  1.4932249105E-18
                       2.7027111349E+00  7.0763782974E-01 -3.9024855403E-01
                       2.7027111349E+00  7.0763782974E-01  3.9024855403E-01
                       2.1013010154E+00 -1.2351174285E+00  1.4932249105E-18
            xcart     -9.9850562843E-18 -1.2589752872E+00  2.8217861356E-18
                      -2.3200534445E+00 -3.4409620737E+00  2.8217861356E-18
                       2.3200534445E+00 -3.4409620737E+00  2.8217861356E-18
                      -5.1073838613E+00  1.3372416995E+00 -7.3746289087E-01
                      -5.1073838613E+00  1.3372416995E+00  7.3746289087E-01
                      -3.9708834419E+00 -2.3340336817E+00  2.8217861356E-18
                       5.1073838613E+00  1.3372416995E+00 -7.3746289087E-01
                       5.1073838613E+00  1.3372416995E+00  7.3746289087E-01
                       3.9708834419E+00 -2.3340336817E+00  2.8217861356E-18
             xred     -6.6567041895E-19 -8.3931685811E-02  1.8811907571E-19
                      -1.5467022964E-01 -2.2939747158E-01  1.8811907571E-19
                       1.5467022964E-01 -2.2939747158E-01  1.8811907571E-19
                      -3.4049225742E-01  8.9149446632E-02 -4.9164192725E-02
                      -3.4049225742E-01  8.9149446632E-02  4.9164192725E-02
                      -2.6472556279E-01 -1.5560224545E-01  1.8811907571E-19
                       3.4049225742E-01  8.9149446632E-02 -4.9164192725E-02
                       3.4049225742E-01  8.9149446632E-02  4.9164192725E-02
                       2.6472556279E-01 -1.5560224545E-01  1.8811907571E-19
            znucl        1.00000    8.00000   14.00000

- Timing analysis has been suppressed with timopt=0

 Suggested references for the acknowledgment of ABINIT usage.

 Calculation completed.
.Delivered   0 WARNINGs and   0 COMMENTs to log file.